letting n =  15
letting blocks =  [[1, 6], [1, 10], [2, 13], [3, 7], [3, 9], [3, 13], [4, 9], [7, 1], [8, 9], [9, 7], [10, 12], [10, 14], [10, 15], [11, 10], [12, 1], [12, 2], [13, 8], [13, 10], [13, 14], [14, 11], [15, 4]]
